66
1 0 8
2 0 5
2 1 3
3 0 2
3 1 5
3 2 6
4 0 3
4 1 6
4 2 5
4 3 3
5 0 4
5 1 2
5 2 8
5 3 2
5 4 6
6 0 2
6 1 2
6 2 2
6 3 4
6 4 6
6 5 2
7 0 5
7 1 4
7 2 6
7 3 7
7 4 2
7 5 8
7 6 8
8 0 8
8 1 3
8 2 2
8 3 2
8 4 2
8 5 1
8 6 2
8 7 3
9 0 4
9 1 8
9 2 6
9 3 7
9 4 3
9 5 1
9 6 8
9 7 5
9 8 8
10 0 1
10 1 6
10 2 5
10 3 7
10 4 5
10 5 4
10 6 6
10 7 7
10 8 6
10 9 4
11 0 4
11 1 8
11 2 6
11 3 1
11 4 4
11 5 7
11 6 1
11 7 4
11 8 5
11 9 2
11 10 3
12 0 5
12 1 6
12 2 8
12 3 7
12 4 5
12 5 1
12 6 1
12 7 3
12 8 4
12 9 1
12 10 2
12 11 6
13 0 5
13 1 7
13 2 1
13 3 8
13 4 4
13 5 6
13 6 2
13 7 4
13 8 1
13 9 6
13 10 3
13 11 5
13 12 2
14 0 8
14 1 1
14 2 2
14 3 2
14 4 3
14 5 5
14 6 1
14 7 8
14 8 1
14 9 5
14 10 7
14 11 8
14 12 5
14 13 8
15 0 3
15 1 7
15 2 8
15 3 5
15 4 2
15 5 7
15 6 1
15 7 2
15 8 6
15 9 5
15 10 3
15 11 5
15 12 5
15 13 1
15 14 4
16 0 5
16 1 3
16 2 3
16 3 2
16 4 8
16 5 6
16 6 1
16 7 4
16 8 6
16 9 1
16 10 7
16 11 3
16 12 8
16 13 5
16 14 6
16 15 3
17 0 6
17 1 1
17 2 7
17 3 3
17 4 6
17 5 4
17 6 7
17 7 1
17 8 5
17 9 7
17 10 2
17 11 7
17 12 2
17 13 2
17 14 8
17 15 4
17 16 6
18 0 5
18 1 8
18 2 7
18 3 3
18 4 2
18 5 7
18 6 4
18 7 7
18 8 4
18 9 1
18 10 4
18 11 8
18 12 8
18 13 5
18 14 8
18 15 4
18 16 3
18 17 7
19 0 6
19 1 4
19 2 4
19 3 7
19 4 4
19 5 7
19 6 1
19 7 4
19 8 5
19 9 7
19 10 7
19 11 2
19 12 5
19 13 4
19 14 2
19 15 3
19 16 3
19 17 1
19 18 1
20 0 7
20 1 5
20 2 8
20 3 8
20 4 8
20 5 2
20 6 5
20 7 5
20 8 2
20 9 8
20 10 3
20 11 1
20 12 1
20 13 5
20 14 7
20 15 7
20 16 1
20 17 7
20 18 8
20 19 2
21 0 3
21 1 5
21 2 2
21 3 2
21 4 8
21 5 6
21 6 7
21 7 1
21 8 5
21 9 3
21 10 2
21 11 2
21 12 3
21 13 4
21 14 7
21 15 5
21 16 6
21 17 5
21 18 4
21 19 5
21 20 8
22 0 3
22 1 1
22 2 7
22 3 4
22 4 8
22 5 6
22 6 8
22 7 4
22 8 5
22 9 4
22 10 6
22 11 6
22 12 8
22 13 6
22 14 6
22 15 4
22 16 6
22 17 6
22 18 4
22 19 4
22 20 3
22 21 1
23 0 7
23 1 6
23 2 8
23 3 8
23 4 6
23 5 8
23 6 1
23 7 2
23 8 1
23 9 3
23 10 3
23 11 2
23 12 6
23 13 6
23 14 6
23 15 2
23 16 5
23 17 8
23 18 3
23 19 8
23 20 1
23 21 1
23 22 1
24 0 7
24 1 1
24 2 7
24 3 6
24 4 3
24 5 7
24 6 6
24 7 7
24 8 6
24 9 5
24 10 8
24 11 8
24 12 1
24 13 4
24 14 7
24 15 6
24 16 2
24 17 5
24 18 6
24 19 6
24 20 8
24 21 3
24 22 5
24 23 5
25 0 3
25 1 2
25 2 5
25 3 3
25 4 3
25 5 5
25 6 1
25 7 2
25 8 7
25 9 4
25 10 4
25 11 6
25 12 7
25 13 1
25 14 7
25 15 5
25 16 5
25 17 3
25 18 5
25 19 7
25 20 4
25 21 4
25 22 6
25 23 2
25 24 7
26 0 6
26 1 4
26 2 3
26 3 5
26 4 7
26 5 4
26 6 8
26 7 5
26 8 5
26 9 3
26 10 2
26 11 3
26 12 6
26 13 6
26 14 5
26 15 6
26 16 6
26 17 2
26 18 1
26 19 8
26 20 4
26 21 3
26 22 2
26 23 1
26 24 3
26 25 4
27 0 8
27 1 3
27 2 4
27 3 3
27 4 2
27 5 2
27 6 4
27 7 1
27 8 6
27 9 8
27 10 1
27 11 6
27 12 2
27 13 4
27 14 7
27 15 1
27 16 2
27 17 5
27 18 5
27 19 5
27 20 2
27 21 6
27 22 3
27 23 4
27 24 2
27 25 8
27 26 4
28 0 5
28 1 5
28 2 2
28 3 3
28 4 2
28 5 3
28 6 2
28 7 4
28 8 1
28 9 7
28 10 7
28 11 2
28 12 8
28 13 5
28 14 8
28 15 4
28 16 6
28 17 4
28 18 6
28 19 8
28 20 1
28 21 2
28 22 7
28 23 5
28 24 6
28 25 6
28 26 8
28 27 7
29 0 3
29 1 7
29 2 7
29 3 7
29 4 7
29 5 5
29 6 6
29 7 6
29 8 1
29 9 8
29 10 1
29 11 6
29 12 4
29 13 2
29 14 5
29 15 5
29 16 7
29 17 5
29 18 5
29 19 2
29 20 8
29 21 8
29 22 2
29 23 5
29 24 3
29 25 5
29 26 6
29 27 2
29 28 4
30 0 7
30 1 4
30 2 8
30 3 4
30 4 7
30 5 7
30 6 3
30 7 5
30 8 5
30 9 1
30 10 1
30 11 5
30 12 5
30 13 5
30 14 7
30 15 7
30 16 2
30 17 1
30 18 4
30 19 4
30 20 3
30 21 3
30 22 7
30 23 4
30 24 7
30 25 5
30 26 2
30 27 3
30 28 4
30 29 7
31 0 6
31 1 7
31 2 4
31 3 5
31 4 8
31 5 3
31 6 4
31 7 3
31 8 4
31 9 1
31 10 7
31 11 7
31 12 5
31 13 3
31 14 1
31 15 7
31 16 7
31 17 8
31 18 6
31 19 4
31 20 3
31 21 4
31 22 4
31 23 8
31 24 1
31 25 8
31 26 1
31 27 1
31 28 8
31 29 5
31 30 5
32 0 2
32 1 8
32 2 3
32 3 5
32 4 3
32 5 4
32 6 5
32 7 2
32 8 1
32 9 6
32 10 6
32 11 1
32 12 1
32 13 3
32 14 1
32 15 8
32 16 3
32 17 7
32 18 8
32 19 8
32 20 1
32 21 3
32 22 1
32 23 6
32 24 5
32 25 1
32 26 5
32 27 8
32 28 8
32 29 1
32 30 4
32 31 4
33 0 4
33 1 3
33 2 1
33 3 2
33 4 1
33 5 2
33 6 1
33 7 8
33 8 3
33 9 8
33 10 7
33 11 2
33 12 6
33 13 5
33 14 1
33 15 8
33 16 7
33 17 8
33 18 7
33 19 6
33 20 5
33 21 4
33 22 5
33 23 7
33 24 4
33 25 2
33 26 8
33 27 3
33 28 5
33 29 1
33 30 2
33 31 2
33 32 7
34 0 8
34 1 5
34 2 7
34 3 4
34 4 5
34 5 1
34 6 7
34 7 4
34 8 6
34 9 3
34 10 4
34 11 7
34 12 3
34 13 4
34 14 5
34 15 7
34 16 8
34 17 8
34 18 4
34 19 7
34 20 8
34 21 5
34 22 1
34 23 6
34 24 1
34 25 7
34 26 5
34 27 4
34 28 3
34 29 8
34 30 6
34 31 3
34 32 7
34 33 4
35 0 6
35 1 2
35 2 3
35 3 1
35 4 5
35 5 5
35 6 7
35 7 6
35 8 3
35 9 2
35 10 4
35 11 7
35 12 7
35 13 4
35 14 7
35 15 6
35 16 4
35 17 3
35 18 8
35 19 6
35 20 2
35 21 4
35 22 5
35 23 1
35 24 8
35 25 1
35 26 1
35 27 8
35 28 8
35 29 5
35 30 4
35 31 4
35 32 7
35 33 8
35 34 6
36 0 6
36 1 1
36 2 8
36 3 8
36 4 8
36 5 7
36 6 6
36 7 2
36 8 1
36 9 8
36 10 6
36 11 5
36 12 7
36 13 3
36 14 4
36 15 5
36 16 3
36 17 7
36 18 5
36 19 2
36 20 4
36 21 1
36 22 1
36 23 3
36 24 1
36 25 4
36 26 8
36 27 2
36 28 3
36 29 1
36 30 7
36 31 2
36 32 8
36 33 8
36 34 5
36 35 5
37 0 2
37 1 4
37 2 1
37 3 5
37 4 3
37 5 3
37 6 8
37 7 8
37 8 6
37 9 4
37 10 4
37 11 4
37 12 6
37 13 4
37 14 2
37 15 7
37 16 4
37 17 4
37 18 5
37 19 4
37 20 5
37 21 5
37 22 5
37 23 2
37 24 6
37 25 7
37 26 3
37 27 5
37 28 3
37 29 2
37 30 7
37 31 4
37 32 8
37 33 6
37 34 3
37 35 7
37 36 2
38 0 4
38 1 7
38 2 1
38 3 8
38 4 3
38 5 1
38 6 6
38 7 6
38 8 7
38 9 4
38 10 7
38 11 4
38 12 8
38 13 3
38 14 4
38 15 7
38 16 7
38 17 3
38 18 4
38 19 4
38 20 6
38 21 1
38 22 2
38 23 5
38 24 4
38 25 8
38 26 4
38 27 5
38 28 2
38 29 2
38 30 1
38 31 6
38 32 6
38 33 4
38 34 1
38 35 4
38 36 7
38 37 1
39 0 2
39 1 7
39 2 2
39 3 4
39 4 5
39 5 2
39 6 5
39 7 6
39 8 6
39 9 7
39 10 3
39 11 1
39 12 8
39 13 7
39 14 6
39 15 1
39 16 4
39 17 1
39 18 5
39 19 8
39 20 7
39 21 2
39 22 3
39 23 7
39 24 3
39 25 1
39 26 2
39 27 8
39 28 2
39 29 1
39 30 4
39 31 8
39 32 6
39 33 5
39 34 8
39 35 3
39 36 7
39 37 8
39 38 6
40 0 5
40 1 4
40 2 8
40 3 4
40 4 4
40 5 2
40 6 4
40 7 3
40 8 5
40 9 7
40 10 3
40 11 3
40 12 5
40 13 8
40 14 1
40 15 6
40 16 1
40 17 3
40 18 4
40 19 7
40 20 1
40 21 7
40 22 6
40 23 3
40 24 2
40 25 3
40 26 2
40 27 7
40 28 6
40 29 8
40 30 1
40 31 8
40 32 4
40 33 2
40 34 8
40 35 3
40 36 7
40 37 2
40 38 2
40 39 3
41 0 3
41 1 6
41 2 5
41 3 1
41 4 2
41 5 8
41 6 6
41 7 8
41 8 4
41 9 6
41 10 8
41 11 8
41 12 8
41 13 4
41 14 8
41 15 5
41 16 1
41 17 3
41 18 3
41 19 1
41 20 6
41 21 5
41 22 4
41 23 4
41 24 6
41 25 4
41 26 4
41 27 1
41 28 5
41 29 3
41 30 4
41 31 1
41 32 6
41 33 3
41 34 4
41 35 7
41 36 5
41 37 3
41 38 3
41 39 5
41 40 2
42 0 3
42 1 5
42 2 1
42 3 8
42 4 1
42 5 2
42 6 4
42 7 7
42 8 3
42 9 1
42 10 2
42 11 4
42 12 5
42 13 2
42 14 2
42 15 1
42 16 7
42 17 1
42 18 2
42 19 2
42 20 3
42 21 6
42 22 3
42 23 1
42 24 3
42 25 3
42 26 8
42 27 6
42 28 2
42 29 3
42 30 6
42 31 8
42 32 2
42 33 7
42 34 1
42 35 2
42 36 6
42 37 8
42 38 5
42 39 7
42 40 2
42 41 4
43 0 4
43 1 4
43 2 5
43 3 1
43 4 2
43 5 2
43 6 4
43 7 5
43 8 1
43 9 7
43 10 7
43 11 4
43 12 4
43 13 5
43 14 2
43 15 7
43 16 1
43 17 7
43 18 8
43 19 5
43 20 8
43 21 7
43 22 3
43 23 5
43 24 2
43 25 8
43 26 5
43 27 6
43 28 1
43 29 1
43 30 3
43 31 6
43 32 1
43 33 3
43 34 1
43 35 3
43 36 3
43 37 4
43 38 4
43 39 6
43 40 8
43 41 1
43 42 4
44 0 1
44 1 3
44 2 8
44 3 5
44 4 5
44 5 1
44 6 2
44 7 3
44 8 5
44 9 7
44 10 6
44 11 7
44 12 5
44 13 1
44 14 4
44 15 5
44 16 6
44 17 8
44 18 8
44 19 4
44 20 6
44 21 4
44 22 2
44 23 7
44 24 5
44 25 3
44 26 1
44 27 1
44 28 4
44 29 5
44 30 2
44 31 2
44 32 1
44 33 3
44 34 2
44 35 2
44 36 5
44 37 1
44 38 7
44 39 7
44 40 2
44 41 4
44 42 1
44 43 5
45 0 1
45 1 6
45 2 1
45 3 4
45 4 4
45 5 7
45 6 6
45 7 4
45 8 3
45 9 6
45 10 1
45 11 5
45 12 8
45 13 1
45 14 2
45 15 3
45 16 2
45 17 7
45 18 6
45 19 6
45 20 7
45 21 5
45 22 2
45 23 1
45 24 5
45 25 4
45 26 5
45 27 8
45 28 8
45 29 5
45 30 7
45 31 6
45 32 8
45 33 5
45 34 8
45 35 8
45 36 5
45 37 5
45 38 7
45 39 8
45 40 6
45 41 4
45 42 8
45 43 8
45 44 2
46 0 4
46 1 3
46 2 2
46 3 7
46 4 6
46 5 1
46 6 2
46 7 7
46 8 7
46 9 2
46 10 5
46 11 8
46 12 8
46 13 8
46 14 2
46 15 7
46 16 1
46 17 2
46 18 3
46 19 2
46 20 4
46 21 8
46 22 5
46 23 5
46 24 7
46 25 7
46 26 8
46 27 1
46 28 2
46 29 4
46 30 1
46 31 7
46 32 2
46 33 4
46 34 1
46 35 3
46 36 2
46 37 1
46 38 6
46 39 8
46 40 4
46 41 1
46 42 8
46 43 7
46 44 6
46 45 8
47 0 4
47 1 5
47 2 2
47 3 5
47 4 8
47 5 8
47 6 1
47 7 4
47 8 7
47 9 2
47 10 1
47 11 4
47 12 8
47 13 2
47 14 3
47 15 4
47 16 3
47 17 7
47 18 3
47 19 2
47 20 5
47 21 2
47 22 1
47 23 6
47 24 8
47 25 6
47 26 5
47 27 7
47 28 8
47 29 3
47 30 3
47 31 5
47 32 2
47 33 5
47 34 3
47 35 8
47 36 6
47 37 5
47 38 1
47 39 5
47 40 2
47 41 2
47 42 7
47 43 4
47 44 1
47 45 5
47 46 8
48 0 4
48 1 2
48 2 7
48 3 8
48 4 1
48 5 3
48 6 6
48 7 1
48 8 7
48 9 3
48 10 2
48 11 1
48 12 4
48 13 6
48 14 2
48 15 6
48 16 6
48 17 3
48 18 6
48 19 6
48 20 7
48 21 5
48 22 8
48 23 3
48 24 1
48 25 1
48 26 7
48 27 7
48 28 8
48 29 7
48 30 6
48 31 7
48 32 8
48 33 1
48 34 1
48 35 2
48 36 5
48 37 7
48 38 2
48 39 3
48 40 7
48 41 8
48 42 5
48 43 4
48 44 3
48 45 4
48 46 7
48 47 2
49 0 5
49 1 7
49 2 7
49 3 3
49 4 2
49 5 3
49 6 1
49 7 5
49 8 4
49 9 2
49 10 2
49 11 4
49 12 4
49 13 5
49 14 7
49 15 4
49 16 6
49 17 3
49 18 7
49 19 3
49 20 4
49 21 2
49 22 6
49 23 3
49 24 3
49 25 7
49 26 3
49 27 2
49 28 1
49 29 8
49 30 7
49 31 8
49 32 7
49 33 7
49 34 2
49 35 2
49 36 4
49 37 8
49 38 5
49 39 8
49 40 2
49 41 8
49 42 7
49 43 4
49 44 3
49 45 8
49 46 1
49 47 1
49 48 2
50 0 7
50 1 7
50 2 1
50 3 2
50 4 2
50 5 8
50 6 7
50 7 1
50 8 7
50 9 7
50 10 5
50 11 4
50 12 3
50 13 4
50 14 2
50 15 7
50 16 7
50 17 2
50 18 4
50 19 5
50 20 7
50 21 2
50 22 5
50 23 3
50 24 2
50 25 6
50 26 4
50 27 7
50 28 6
50 29 4
50 30 5
50 31 2
50 32 2
50 33 6
50 34 1
50 35 4
50 36 1
50 37 8
50 38 4
50 39 4
50 40 5
50 41 3
50 42 7
50 43 1
50 44 2
50 45 8
50 46 1
50 47 3
50 48 4
50 49 8
51 0 7
51 1 2
51 2 8
51 3 3
51 4 6
51 5 7
51 6 5
51 7 6
51 8 4
51 9 8
51 10 8
51 11 8
51 12 1
51 13 5
51 14 2
51 15 7
51 16 5
51 17 1
51 18 5
51 19 3
51 20 5
51 21 6
51 22 6
51 23 8
51 24 6
51 25 1
51 26 4
51 27 5
51 28 1
51 29 8
51 30 5
51 31 1
51 32 5
51 33 5
51 34 1
51 35 5
51 36 1
51 37 5
51 38 1
51 39 3
51 40 4
51 41 4
51 42 6
51 43 5
51 44 1
51 45 1
51 46 6
51 47 6
51 48 7
51 49 1
51 50 2
52 0 1
52 1 7
52 2 8
52 3 6
52 4 3
52 5 4
52 6 6
52 7 6
52 8 5
52 9 4
52 10 6
52 11 3
52 12 4
52 13 6
52 14 5
52 15 8
52 16 4
52 17 3
52 18 4
52 19 8
52 20 5
52 21 7
52 22 5
52 23 4
52 24 2
52 25 2
52 26 7
52 27 3
52 28 2
52 29 4
52 30 3
52 31 8
52 32 6
52 33 7
52 34 5
52 35 8
52 36 5
52 37 6
52 38 2
52 39 8
52 40 8
52 41 1
52 42 3
52 43 4
52 44 6
52 45 3
52 46 6
52 47 1
52 48 4
52 49 6
52 50 8
52 51 5
53 0 4
53 1 6
53 2 4
53 3 1
53 4 7
53 5 1
53 6 2
53 7 1
53 8 6
53 9 5
53 10 2
53 11 7
53 12 2
53 13 8
53 14 2
53 15 1
53 16 8
53 17 5
53 18 6
53 19 7
53 20 2
53 21 4
53 22 5
53 23 7
53 24 2
53 25 7
53 26 2
53 27 8
53 28 2
53 29 5
53 30 6
53 31 5
53 32 6
53 33 2
53 34 4
53 35 4
53 36 4
53 37 1
53 38 5
53 39 2
53 40 1
53 41 5
53 42 2
53 43 7
53 44 3
53 45 8
53 46 2
53 47 3
53 48 5
53 49 8
53 50 2
53 51 3
53 52 5
54 0 8
54 1 3
54 2 6
54 3 6
54 4 5
54 5 1
54 6 1
54 7 4
54 8 7
54 9 5
54 10 7
54 11 4
54 12 1
54 13 6
54 14 1
54 15 3
54 16 5
54 17 7
54 18 5
54 19 3
54 20 3
54 21 1
54 22 5
54 23 1
54 24 4
54 25 4
54 26 4
54 27 6
54 28 6
54 29 7
54 30 4
54 31 4
54 32 4
54 33 7
54 34 1
54 35 5
54 36 2
54 37 1
54 38 1
54 39 7
54 40 4
54 41 1
54 42 6
54 43 4
54 44 6
54 45 4
54 46 7
54 47 6
54 48 2
54 49 6
54 50 8
54 51 4
54 52 2
54 53 7
55 0 6
55 1 6
55 2 6
55 3 1
55 4 7
55 5 2
55 6 1
55 7 7
55 8 5
55 9 5
55 10 7
55 11 8
55 12 7
55 13 3
55 14 6
55 15 7
55 16 4
55 17 3
55 18 2
55 19 8
55 20 6
55 21 6
55 22 7
55 23 1
55 24 7
55 25 8
55 26 3
55 27 8
55 28 8
55 29 4
55 30 8
55 31 7
55 32 1
55 33 4
55 34 3
55 35 1
55 36 3
55 37 4
55 38 1
55 39 3
55 40 7
55 41 5
55 42 6
55 43 1
55 44 1
55 45 5
55 46 8
55 47 7
55 48 6
55 49 1
55 50 7
55 51 2
55 52 6
55 53 7
55 54 4
56 0 7
56 1 7
56 2 6
56 3 5
56 4 7
56 5 4
56 6 5
56 7 6
56 8 7
56 9 3
56 10 5
56 11 1
56 12 7
56 13 6
56 14 5
56 15 8
56 16 5
56 17 8
56 18 4
56 19 2
56 20 8
56 21 6
56 22 1
56 23 5
56 24 2
56 25 5
56 26 4
56 27 8
56 28 4
56 29 3
56 30 4
56 31 1
56 32 5
56 33 7
56 34 7
56 35 5
56 36 7
56 37 5
56 38 8
56 39 5
56 40 8
56 41 7
56 42 1
56 43 2
56 44 6
56 45 2
56 46 2
56 47 4
56 48 3
56 49 5
56 50 3
56 51 1
56 52 7
56 53 8
56 54 3
56 55 1
57 0 1
57 1 7
57 2 1
57 3 4
57 4 8
57 5 2
57 6 2
57 7 5
57 8 5
57 9 5
57 10 3
57 11 1
57 12 1
57 13 1
57 14 8
57 15 7
57 16 5
57 17 7
57 18 6
57 19 5
57 20 3
57 21 7
57 22 4
57 23 1
57 24 8
57 25 1
57 26 8
57 27 2
57 28 1
57 29 7
57 30 4
57 31 5
57 32 6
57 33 5
57 34 6
57 35 8
57 36 1
57 37 7
57 38 7
57 39 3
57 40 8
57 41 2
57 42 5
57 43 2
57 44 6
57 45 6
57 46 8
57 47 5
57 48 7
57 49 6
57 50 8
57 51 3
57 52 3
57 53 2
57 54 4
57 55 8
57 56 4
58 0 6
58 1 7
58 2 7
58 3 8
58 4 6
58 5 4
58 6 3
58 7 2
58 8 6
58 9 5
58 10 3
58 11 2
58 12 6
58 13 4
58 14 3
58 15 6
58 16 4
58 17 4
58 18 1
58 19 1
58 20 8
58 21 7
58 22 3
58 23 8
58 24 5
58 25 1
58 26 7
58 27 7
58 28 1
58 29 5
58 30 2
58 31 7
58 32 2
58 33 2
58 34 8
58 35 6
58 36 8
58 37 6
58 38 4
58 39 3
58 40 8
58 41 2
58 42 5
58 43 1
58 44 5
58 45 2
58 46 7
58 47 3
58 48 6
58 49 6
58 50 7
58 51 1
58 52 2
58 53 3
58 54 5
58 55 1
58 56 6
58 57 3
59 0 6
59 1 7
59 2 4
59 3 2
59 4 4
59 5 5
59 6 6
59 7 4
59 8 6
59 9 6
59 10 2
59 11 7
59 12 7
59 13 4
59 14 5
59 15 4
59 16 5
59 17 6
59 18 8
59 19 6
59 20 1
59 21 3
59 22 1
59 23 8
59 24 5
59 25 1
59 26 8
59 27 7
59 28 2
59 29 6
59 30 2
59 31 7
59 32 5
59 33 2
59 34 6
59 35 6
59 36 3
59 37 2
59 38 6
59 39 4
59 40 2
59 41 2
59 42 4
59 43 3
59 44 4
59 45 6
59 46 7
59 47 5
59 48 6
59 49 4
59 50 5
59 51 5
59 52 4
59 53 5
59 54 8
59 55 7
59 56 8
59 57 1
59 58 6
60 0 5
60 1 3
60 2 5
60 3 3
60 4 3
60 5 5
60 6 5
60 7 6
60 8 6
60 9 3
60 10 7
60 11 1
60 12 5
60 13 7
60 14 6
60 15 5
60 16 6
60 17 4
60 18 1
60 19 6
60 20 2
60 21 2
60 22 8
60 23 4
60 24 1
60 25 3
60 26 3
60 27 1
60 28 7
60 29 3
60 30 6
60 31 5
60 32 4
60 33 1
60 34 6
60 35 4
60 36 2
60 37 1
60 38 3
60 39 4
60 40 2
60 41 7
60 42 5
60 43 3
60 44 4
60 45 4
60 46 6
60 47 1
60 48 1
60 49 5
60 50 1
60 51 7
60 52 5
60 53 7
60 54 2
60 55 5
60 56 3
60 57 4
60 58 4
60 59 1
61 0 4
61 1 2
61 2 3
61 3 3
61 4 5
61 5 8
61 6 1
61 7 1
61 8 7
61 9 5
61 10 7
61 11 5
61 12 4
61 13 2
61 14 3
61 15 3
61 16 2
61 17 6
61 18 7
61 19 4
61 20 4
61 21 2
61 22 1
61 23 1
61 24 3
61 25 3
61 26 6
61 27 2
61 28 4
61 29 6
61 30 7
61 31 1
61 32 8
61 33 7
61 34 5
61 35 2
61 36 4
61 37 2
61 38 7
61 39 5
61 40 4
61 41 1
61 42 3
61 43 2
61 44 3
61 45 5
61 46 2
61 47 4
61 48 7
61 49 1
61 50 7
61 51 8
61 52 8
61 53 1
61 54 7
61 55 8
61 56 6
61 57 7
61 58 3
61 59 6
61 60 3
62 0 1
62 1 1
62 2 6
62 3 2
62 4 4
62 5 2
62 6 1
62 7 1
62 8 6
62 9 4
62 10 8
62 11 7
62 12 1
62 13 2
62 14 6
62 15 8
62 16 3
62 17 6
62 18 6
62 19 4
62 20 2
62 21 1
62 22 6
62 23 2
62 24 6
62 25 3
62 26 1
62 27 3
62 28 8
62 29 3
62 30 7
62 31 8
62 32 7
62 33 8
62 34 3
62 35 4
62 36 1
62 37 3
62 38 4
62 39 5
62 40 4
62 41 4
62 42 8
62 43 3
62 44 8
62 45 4
62 46 3
62 47 6
62 48 6
62 49 1
62 50 6
62 51 8
62 52 1
62 53 5
62 54 6
62 55 4
62 56 4
62 57 3
62 58 8
62 59 5
62 60 3
62 61 5
63 0 6
63 1 8
63 2 7
63 3 1
63 4 2
63 5 5
63 6 8
63 7 2
63 8 5
63 9 1
63 10 3
63 11 8
63 12 8
63 13 6
63 14 5
63 15 4
63 16 4
63 17 1
63 18 8
63 19 7
63 20 4
63 21 7
63 22 8
63 23 1
63 24 1
63 25 1
63 26 8
63 27 5
63 28 8
63 29 4
63 30 3
63 31 4
63 32 5
63 33 2
63 34 6
63 35 3
63 36 5
63 37 2
63 38 8
63 39 5
63 40 4
63 41 6
63 42 7
63 43 6
63 44 2
63 45 4
63 46 2
63 47 3
63 48 2
63 49 3
63 50 5
63 51 2
63 52 8
63 53 1
63 54 1
63 55 2
63 56 5
63 57 3
63 58 1
63 59 5
63 60 6
63 61 5
63 62 4
64 0 7
64 1 8
64 2 6
64 3 7
64 4 5
64 5 5
64 6 4
64 7 4
64 8 2
64 9 3
64 10 4
64 11 1
64 12 5
64 13 6
64 14 7
64 15 1
64 16 4
64 17 6
64 18 6
64 19 8
64 20 6
64 21 5
64 22 6
64 23 3
64 24 4
64 25 3
64 26 7
64 27 8
64 28 4
64 29 8
64 30 1
64 31 6
64 32 2
64 33 1
64 34 3
64 35 8
64 36 4
64 37 2
64 38 2
64 39 6
64 40 3
64 41 8
64 42 7
64 43 6
64 44 1
64 45 2
64 46 6
64 47 8
64 48 2
64 49 1
64 50 8
64 51 1
64 52 7
64 53 5
64 54 1
64 55 6
64 56 2
64 57 8
64 58 7
64 59 6
64 60 5
64 61 1
64 62 1
64 63 5
65 0 7
65 1 3
65 2 1
65 3 1
65 4 2
65 5 4
65 6 2
65 7 7
65 8 4
65 9 3
65 10 6
65 11 4
65 12 6
65 13 4
65 14 5
65 15 4
65 16 2
65 17 5
65 18 4
65 19 4
65 20 5
65 21 8
65 22 4
65 23 7
65 24 4
65 25 7
65 26 1
65 27 2
65 28 6
65 29 2
65 30 2
65 31 2
65 32 3
65 33 5
65 34 1
65 35 6
65 36 8
65 37 4
65 38 6
65 39 4
65 40 8
65 41 4
65 42 7
65 43 3
65 44 8
65 45 2
65 46 1
65 47 8
65 48 3
65 49 8
65 50 8
65 51 3
65 52 4
65 53 4
65 54 6
65 55 3
65 56 4
65 57 7
65 58 2
65 59 3
65 60 8
65 61 2
65 62 8
65 63 1
65 64 1
